c instance by G2
c solution = 000100001011111110011
c Known solution cost is 839 
p cnf 21 30
w 53 30 81 20 50 57 2 56 25 2 74 41 47 34 4 5 49 41 62 53 53
-3 8 -1 0
20 -12 2 0
11 -5 1 0
21 -6 14 0
7 3 -8 0
2 -13 -1 0
14 -12 10 0
15 -12 19 0
-16 3 -18 0
-6 -4 5 0
-15 -3 -11 0
-5 -6 -19 0
10 17 8 0
-5 18 -11 0
-10 16 -13 0
-4 -16 -7 0
-21 16 11 0
19 6 -10 0
-20 -12 13 0
-9 7 -19 0
7 -15 4 0
21 -9 -15 0
-20 9 10 0
-12 17 8 0
4 20 -18 0
-21 12 -9 0
2 -5 6 0
-14 -15 16 0
1 3 -2 0
-15 6 11 0
